% File represents an instance of a Composite Structure problem to be solved by a CP framework
% Created on 2025-03-25 14:06:10.850
T = 40;
n = 9;
m = 12;
edges = [(2, 1),
(5, 4),
(7, 8),
(3, 2),
(5, 6),
(8, 9),
(4, 1),
(7, 4),
(5, 2),
(5, 8),
(3, 6),
(6, 9)];
counts = [|6, 6, 8, 2,
|10, 8, 10, 2,
|12, 10, 10, 8,
|12, 6, 10, 2,
|12, 8, 10, 8,
|12, 8, 10, 6,
|14, 6, 10, 10,
|12, 6, 10, 8,
|10, 6, 10, 4|];
